NAME: tsp_407
COMMENT: Random TSP instance
TYPE: TSP
DIMENSION: 50
EDGE_WEIGHT_TYPE: EUC_2D
NODE_COORD_SECTION
1 373 279
2 201 464
3 654 291
4 633 464
5 278 231
6 451 497
7 951 414
8 899 86
9 140 879
10 462 154
11 490 733
12 919 40
13 472 125
14 849 59
15 369 586
16 414 954
17 511 321
18 943 365
19 612 937
20 554 363
21 488 109
22 442 481
23 600 787
24 563 125
25 836 890
26 527 53
27 761 330
28 42 71
29 163 361
30 897 128
31 193 171
32 434 199
33 108 610
34 684 127
35 514 600
36 861 802
37 720 779
38 525 475
39 423 351
40 656 446
41 959 46
42 529 298
43 839 734
44 164 620
45 453 233
46 759 510
47 310 712
48 800 272
49 607 73
50 442 56
